c --- [ banner ] -------------------------------------------------------------
c 
c CaDiCaL SAT Solver
c Copyright (c) 2016-2024
c A. Biere, M. Fleury, N. Froleyks, K. Fazekas, F. Pollitt, T. Faller
c JKU Linz, University of Freiburg, TU Wien
c 
c Version 2.1.3 f13d74439a5b5c963ac5b02d05ce93a8098018b8
c g++ (Gentoo 12.3.1_p20230526 p2) 12.3.1 20230526 -Wall -Wextra -O3 -DNDEBUG
c Thu Apr 10 08:26:21 EDT 2025 Linux narval2.narval.calcul.quebec 4.18.0-553.40.1.el8_10.x86_64 x86_64
c 
c --- [ parsing input ] ------------------------------------------------------
c 
c reading DIMACS file from 'cnfs//3color_gnm_35.cnf'
c opening file to read 'cnfs//3color_gnm_35.cnf'
c found 'p cnf 105 350' header
c parsed 350 clauses in 0.00 seconds process time
c 
c --- [ options ] ------------------------------------------------------------
c 
c all options are set to their default value
c 
c --- [ solving ] ------------------------------------------------------------
c 
c time measured in process time since initialization
c 
c  seconds  reductions  redundant irredundant
c         MB    restarts       trail    variables
c          level   conflicts       glue     remaining
c 
c *  0.00  4  0 0   0    0    0  0% 0  350 105 100%
c {  0.00  4  0 0   0    0    0  0% 0  350 105 100%
c }  0.00  4  4 0   0    5    5 64% 2  350 105 100%
c 1  0.00  4  4 0   0    5    5 64% 2  350 105 100%
c 
c --- [ result ] -------------------------------------------------------------
c 
s SATISFIABLE
v 1 -2 -3 -4 5 -6 -7 8 -9 10 -11 -12 13 -14 -15 -16 17 -18 -19 20 -21 -22 -23
v 24 -25 -26 27 28 -29 -30 -31 32 -33 -34 -35 36 -37 38 -39 -40 -41 42 43 -44
v -45 46 -47 -48 -49 50 -51 -52 53 -54 55 -56 -57 -58 -59 60 -61 62 -63 64 -65
v -66 67 -68 -69 -70 -71 72 -73 74 -75 -76 -77 78 79 -80 -81 -82 83 -84 85 -86
v -87 -88 -89 90 -91 92 -93 -94 -95 96 -97 98 -99 -100 -101 102 -103 -104 105
v 0
c 
c --- [ run-time profiling ] -------------------------------------------------
c 
c process time taken by individual solving procedures
c (percentage relative to process time for solving)
c 
c         0.00  129.52% parse
c         0.00   60.00% search
c         0.00   44.13% unstable
c         0.00    9.21% lucky
c         0.00    0.00% simplify
c   =================================
c         0.00   21.36% solve
c 
c last line shows process time for solving
c (percentage relative to total process time)
c 
c --- [ statistics ] ---------------------------------------------------------
c 
c chronological:                 4        80.00 %  of conflicts
c conflicts:                     5     15873.02    per second
c decisions:                    15     47619.05    per second
c learned:                       5       100.00 %  per conflict
c learned_lits:                 18       100.00 %  learned literals
c minimized:                     0         0.00 %  learned literals
c shrunken:                      1         5.56 %  learned literals
c minishrunken:                  0         0.00 %  learned literals
c otfs:                          0         0.00 %  of conflict
c propagations:                208         0.66 M  per second
c 
c seconds are measured in process time for solving
c 
c --- [ resources ] ----------------------------------------------------------
c 
c total process time since initialization:         0.00    seconds
c total real time since initialization:            0.03    seconds
c maximum resident set size of process:            4.17    MB
c 
c --- [ shutting down ] ------------------------------------------------------
c 
c exit 10
